Solving original (integer) problem with strategy gdp.hull_exact...
--- Job model.gms Start 02/15/26 22:10:21 52.2.0 d8e408be LEX-LEG x86 64bit/Linux
--- Applying:
    /package/gams/52.2/gmsprmun.txt
--- GAMS Parameters defined
    Input /local/scratch/a/sgusev/repos/k_means/data/gams_scip_gdp.hull_exact/no_mode/2026-02-15_22-10-20/original/model.gms
    Output /local/scratch/a/sgusev/repos/k_means/data/gams_scip_gdp.hull_exact/no_mode/2026-02-15_22-10-20/original/output.lst
    ScrDir /local/scratch/a/sgusev/repos/k_means/data/gams_scip_gdp.hull_exact/no_mode/2026-02-15_22-10-20/original/225a/
    SysDir /package/gams/52.2/
    CurDir /local/scratch/a/sgusev/repos/k_means/data/gams_scip_gdp.hull_exact/no_mode/2026-02-15_22-10-20/original/
    LogOption 3
    AppendLog 1
Licensee: David Bernal / SECQUOIA Research Group         G251008+0003Ac-GEN
          Purdue University, Davidson School of Chemical EngineeringDCE4838
          225a/gamslice.dat
          5a82958a-fbca-4a23
          node:66820903 mem:995 cores:48 ipport:33261 v:2                  
          Evaluation license: Not for commercial or production use
          The time-limited license stops working on : Jun 30, 2027
System information: 48 physical cores and 995 Gb physical memory detected
GAMS 52.2.0   Copyright (C) 1987-2025 GAMS Development. All rights reserved
--- Starting compilation
--- model.gms(1652) 2 Mb
--- $echo File /local/scratch/a/sgusev/repos/k_means/data/gams_scip_gdp.hull_exact/no_mode/2026-02-15_22-10-20/original/scip.opt
--- model.gms(2470) 2 Mb
--- Starting execution: elapsed 0:00:00.011
--- model.gms(1662) 3 Mb
--- Generating MINLP model GAMS_MODEL
--- model.gms(1666) 5 Mb
---   497 rows  254 columns  1,201 non-zeroes
---   819 nl-code  156 nl-non-zeroes
---   39 discrete-columns
--- Range statistics (absolute non-zero finite values)
--- RHS       [min, max] : [ 1.000E+00, 1.000E+00] - Zero values observed as well
--- Bound     [min, max] : [ 1.000E+00, 5.200E+01] - Zero values observed as well
--- Matrix    [min, max] : [ 1.000E+00, 5.200E+01] - Zero values observed as well
--- model.gms(1666) 3 Mb
--- Executing SCIP (Solvelink=5): elapsed 0:00:00.015

SCIP             52.2.0 d8e408be Dec 8, 2025           LEG x86 64bit/Linux    
SCIP version 9.2.4 (a94f778ac8)
Copyright (c) 2002-2025 Zuse Institute Berlin (ZIB)

External libraries: 
  CPLEX 22.1.2.0       Linear Programming Solver developed by IBM (www.cplex.com)
  CppAD 20180000.0     Algorithmic Differentiation of C++ algorithms developed by B. Bell (github.com/coin-or/CppAD)
  PaPILO 2.4.4         parallel presolve for integer and linear optimization (github.com/scipopt/papilo) (built with TBB) [GitHash: 7c826d50]
  Nauty 2.8.9          Computing Graph Automorphism Groups by Brendan D. McKay (users.cecs.anu.edu.au/~bdm/nauty)
  sassy 1.1            Symmetry preprocessor by Markus Anders (github.com/markusa4/sassy)
  Ipopt 3.14.19        Interior Point Optimizer developed by A. Waechter et.al. (github.com/coin-or/Ipopt)

reading option file /local/scratch/a/sgusev/repos/k_means/data/gams_scip_gdp.hull_exact/no_mode/2026-02-15_22-10-20/original/scip.opt
non-default parameter settings:
limits/time = 300
limits/gap = 1e-06
limits/absgap = 1e-10
lp/threads = 1
misc/printreason = FALSE
numerics/dualfeastol = 1e-06
parallel/maxnthreads = 1
nlpi/ipopt/linear_solver = "ma27"
nlpi/ipopt/linear_system_scaling = "mc19"

original problem has 253 variables (39 bin, 0 int, 214 cont) and 496 constraints

all 1 solutions given by solution candidate storage are infeasible

presolving:
(round 1, fast)       13 del vars, 0 del conss, 0 add conss, 0 chg bounds, 0 chg sides, 0 chg coeffs, 0 upgd conss, 0 impls, 13 clqs
(round 2, fast)       13 del vars, 0 del conss, 0 add conss, 0 chg bounds, 13 chg sides, 0 chg coeffs, 0 upgd conss, 0 impls, 13 clqs
(round 3, exhaustive) 13 del vars, 0 del conss, 0 add conss, 0 chg bounds, 13 chg sides, 0 chg coeffs, 364 upgd conss, 0 impls, 13 clqs
   (0.0s) probing cycle finished: starting next cycle
   (0.0s) symmetry computation started: requiring (bin +, int +, cont +), (fixed: bin -, int -, cont -)
   (0.0s) no symmetry present (symcode time: 0.00)
presolving (4 rounds: 4 fast, 2 medium, 2 exhaustive):
 13 deleted vars, 0 deleted constraints, 0 added constraints, 0 tightened bounds, 0 added holes, 13 changed sides, 0 changed coefficients
 741 implications, 13 cliques
presolved problem has 240 variables (39 bin, 0 int, 0 impl, 201 cont) and 496 constraints
    351 constraints of type <varbound>
     13 constraints of type <setppc>
     93 constraints of type <linear>
     39 constraints of type <nonlinear>
Presolving Time: 0.02

 time | node  | left  |LP iter|LP it/n|mem/heur|mdpt |vars |cons |rows |cuts |sepa|confs|strbr|  dualbound   | primalbound  |  gap   | compl. 
  0.1s|     1 |     0 |   300 |     - |  5635k |   0 | 474 | 496 | 769 |   0 |  0 |   0 |   0 | 0.000000e+00 |      --      |    Inf | unknown
o 0.1s|     1 |     0 |   456 |     - |feaspump|   0 | 474 | 496 | 769 |   0 |  0 |   0 |   0 | 0.000000e+00 | 7.555980e+00 |    Inf | unknown
  0.1s|     1 |     0 |   564 |     - |  5923k |   0 | 474 | 496 | 823 |  54 |  1 |   0 |   0 | 0.000000e+00 | 7.555980e+00 |    Inf | unknown
  0.1s|     1 |     0 |   564 |     - |  5933k |   0 | 474 | 496 | 810 |  54 |  1 |   0 |   0 | 0.000000e+00 | 7.555980e+00 |    Inf | unknown
  0.1s|     1 |     0 |   642 |     - |  6345k |   0 | 474 | 496 | 873 | 117 |  2 |   0 |   0 | 0.000000e+00 | 7.555980e+00 |    Inf | unknown
  0.1s|     1 |     0 |   722 |     - |  6624k |   0 | 474 | 496 | 929 | 173 |  3 |   0 |   0 | 0.000000e+00 | 7.555980e+00 |    Inf | unknown
  0.1s|     1 |     0 |   796 |     - |  6746k |   0 | 474 | 496 | 977 | 221 |  4 |   0 |   0 | 0.000000e+00 | 7.555980e+00 |    Inf | unknown
  0.1s|     1 |     0 |   853 |     - |  7690k |   0 | 474 | 496 |1024 | 268 |  5 |   0 |   0 | 0.000000e+00 | 7.555980e+00 |    Inf | unknown
  0.2s|     1 |     0 |   919 |     - |  7911k |   0 | 474 | 496 |1063 | 307 |  6 |   0 |   0 | 0.000000e+00 | 7.555980e+00 |    Inf | unknown
  0.2s|     1 |     0 |   982 |     - |  8184k |   0 | 474 | 496 |1094 | 338 |  7 |   0 |   0 | 0.000000e+00 | 7.555980e+00 |    Inf | unknown
  0.2s|     1 |     0 |  1046 |     - |  8474k |   0 | 474 | 496 |1125 | 369 |  8 |   0 |   0 | 0.000000e+00 | 7.555980e+00 |    Inf | unknown
  0.3s|     1 |     0 |  1094 |     - |  8615k |   0 | 474 | 496 |1158 | 402 |  9 |   0 |   0 | 0.000000e+00 | 7.555980e+00 |    Inf | unknown
  0.3s|     1 |     0 |  1140 |     - |  8749k |   0 | 474 | 496 | 970 | 431 | 10 |   0 |   0 | 0.000000e+00 | 7.555980e+00 |    Inf | unknown
  0.3s|     1 |     0 |  1172 |     - |  8861k |   0 | 474 | 496 | 993 | 454 | 11 |   0 |   0 | 0.000000e+00 | 7.555980e+00 |    Inf | unknown
  1.2s|     1 |     0 |  3959 |     - |  9686k |   0 | 474 | 483 | 993 | 454 | 11 |   0 |   5 | 0.000000e+00 | 7.555980e+00 |    Inf | unknown
 time | node  | left  |LP iter|LP it/n|mem/heur|mdpt |vars |cons |rows |cuts |sepa|confs|strbr|  dualbound   | primalbound  |  gap   | compl. 
  1.3s|     1 |     0 |  3996 |     - |  9781k |   0 | 474 | 483 |1014 | 475 | 12 |   0 |   5 | 0.000000e+00 | 7.555980e+00 |    Inf | unknown
  1.3s|     1 |     0 |  4005 |     - |  9794k |   0 | 474 | 483 |1018 | 479 | 13 |   0 |   5 | 0.000000e+00 | 7.555980e+00 |    Inf | unknown
  1.3s|     1 |     0 |  4005 |     - |  9806k |   0 | 474 | 483 |1018 | 479 | 13 |   0 |  10 | 0.000000e+00 | 7.555980e+00 |    Inf | unknown
  1.3s|     1 |     0 |  4060 |     - |  9904k |   0 | 474 | 483 | 880 | 502 | 14 |   0 |  10 | 0.000000e+00 | 7.555980e+00 |    Inf | unknown
  1.3s|     1 |     0 |  4073 |     - |  9915k |   0 | 474 | 483 | 889 | 511 | 15 |   0 |  10 | 0.000000e+00 | 7.555980e+00 |    Inf | unknown
  1.3s|     1 |     0 |  4073 |     - |  9926k |   0 | 474 | 483 | 889 | 511 | 15 |   0 |  15 | 0.000000e+00 | 7.555980e+00 |    Inf | unknown
  1.3s|     1 |     0 |  4127 |     - |    10M |   0 | 474 | 483 | 916 | 538 | 16 |   0 |  15 | 0.000000e+00 | 7.555980e+00 |    Inf | unknown
  1.3s|     1 |     0 |  4142 |     - |    10M |   0 | 474 | 483 | 925 | 547 | 17 |   0 |  15 | 0.000000e+00 | 7.555980e+00 |    Inf | unknown
  1.4s|     1 |     0 |  4142 |     - |    10M |   0 | 474 | 483 | 925 | 547 | 17 |   0 |  20 | 0.000000e+00 | 7.555980e+00 |    Inf | unknown
  1.4s|     1 |     0 |  4179 |     - |    10M |   0 | 474 | 483 | 948 | 570 | 18 |   0 |  20 | 0.000000e+00 | 7.555980e+00 |    Inf | unknown
  1.4s|     1 |     0 |  4191 |     - |    10M |   0 | 474 | 483 | 953 | 575 | 19 |   0 |  20 | 0.000000e+00 | 7.555980e+00 |    Inf | unknown
  1.4s|     1 |     0 |  4191 |     - |    10M |   0 | 474 | 483 | 953 | 575 | 19 |   0 |  25 | 0.000000e+00 | 7.555980e+00 |    Inf | unknown
  1.4s|     1 |     0 |  4227 |     - |    10M |   0 | 474 | 483 | 802 | 595 | 20 |   0 |  25 | 0.000000e+00 | 7.555980e+00 |    Inf | unknown
  1.4s|     1 |     0 |  4237 |     - |    10M |   0 | 474 | 483 | 808 | 601 | 21 |   0 |  25 | 0.000000e+00 | 7.555980e+00 |    Inf | unknown
  1.4s|     1 |     0 |  4237 |     - |    10M |   0 | 474 | 483 | 808 | 601 | 21 |   0 |  27 | 0.000000e+00 | 7.555980e+00 |    Inf | unknown
 time | node  | left  |LP iter|LP it/n|mem/heur|mdpt |vars |cons |rows |cuts |sepa|confs|strbr|  dualbound   | primalbound  |  gap   | compl. 
  1.5s|     1 |     0 |  4271 |     - |    10M |   0 | 474 | 483 | 829 | 622 | 22 |   0 |  27 | 0.000000e+00 | 7.555980e+00 |    Inf | unknown
  1.5s|     1 |     0 |  4282 |     - |    10M |   0 | 474 | 483 | 836 | 629 | 23 |   0 |  27 | 0.000000e+00 | 7.555980e+00 |    Inf | unknown
  1.5s|     1 |     2 |  4282 |     - |    10M |   0 | 474 | 483 | 836 | 629 | 23 |   0 |  27 | 0.000000e+00 | 7.555980e+00 |    Inf | unknown
L 1.7s|    13 |    14 |  5795 | 367.3 |  subnlp|  12 | 474 | 483 |1064 |1666 |  4 |   0 | 102 | 0.000000e+00 | 6.949932e+00 |    Inf | unknown
* 1.7s|    14 |    13 |  5909 | 347.8 |    LP  |  13 | 474 | 483 |1161 |1806 |  7 |   0 | 102 | 0.000000e+00 | 6.949926e+00 |    Inf | unknown
d 1.9s|    35 |    25 |  8419 | 206.8 |adaptive|  13 | 474 | 483 | 977 |3014 |  4 |   0 | 170 | 0.000000e+00 | 4.246806e+00 |    Inf |   3.26%
d 2.0s|    45 |    27 |  9761 | 190.3 |fracdivi|  13 | 474 | 483 | 983 |3534 |  6 |   0 | 174 | 0.000000e+00 | 2.181520e+00 |    Inf |   6.12%
  2.5s|   100 |    66 | 18785 | 175.7 |    16M |  13 | 474 | 483 | 935 |6626 |  6 |   0 | 184 | 0.000000e+00 | 2.181520e+00 |    Inf |  11.00%
d 3.0s|   156 |    84 | 26920 | 164.7 |nlpdivin|  17 | 474 | 483 |1086 |   0 |  6 |   4 | 184 | 3.711638e-01 | 1.893216e+00 | 410.08%|  24.21%
  3.3s|   200 |   104 | 30292 | 145.3 |    19M |  22 | 474 | 483 |1042 |  11k|  0 |   8 | 188 | 4.415389e-01 | 1.893216e+00 | 328.78%|  28.00%
o 3.4s|   211 |   102 | 31119 | 141.6 |feaspump|  22 | 474 | 483 |1024 |  11k|  2 |   9 | 188 | 4.654267e-01 | 1.886539e+00 | 305.34%|  31.00%
d 3.5s|   247 |    87 | 32903 | 128.1 |linesear|  22 | 474 | 483 | 927 |  12k|  2 |  11 | 189 | 5.838449e-01 | 1.691820e+00 | 189.77%|  38.79%
  3.9s|   300 |   114 | 36845 | 118.6 |    21M |  22 | 474 | 483 | 972 |  14k|  2 |  16 | 189 | 5.838449e-01 | 1.691820e+00 | 189.77%|  43.37%
* 4.0s|   333 |    74 | 38906 | 113.0 |    LP  |  22 | 474 | 483 |1158 |  15k|  7 |  19 | 189 | 6.849325e-01 | 1.463220e+00 | 113.63%|  52.75%
  4.3s|   400 |    87 | 43000 | 104.3 |    22M |  22 | 474 | 483 |1071 |  17k|  2 |  22 | 189 | 6.880096e-01 | 1.463220e+00 | 112.67%|  61.40%
 time | node  | left  |LP iter|LP it/n|mem/heur|mdpt |vars |cons |rows |cuts |sepa|confs|strbr|  dualbound   | primalbound  |  gap   | compl. 
  4.6s|   500 |    61 | 46381 |  90.2 |    23M |  22 | 474 | 484 |1002 |  18k|  0 |  30 | 189 | 8.613903e-01 | 1.463220e+00 |  69.87%|  73.68%
  5.0s|   600 |     5 | 49146 |  79.7 |    23M |  22 | 474 | 484 |1150 |  19k|  3 |  33 | 189 | 1.385249e+00 | 1.463220e+00 |   5.63%|  98.79%

SCIP Status        : problem is solved [optimal solution found]
Solving Time (sec) : 5.07
Solving Nodes      : 611
Primal Bound       : +1.46322047856780e+00 (12 solutions)
Dual Bound         : +1.46322047856780e+00
Gap                : 0.00 %


--- Reading solution for model GAMS_MODEL
***
*** Solver did not provide marginals for model GAMS_MODEL
***
--- Executing after solve: elapsed 0:00:05.141
--- model.gms(1669) 3 Mb
--- model.gms(2470) 5 Mb
--- Putfile results /local/scratch/a/sgusev/repos/k_means/data/gams_scip_gdp.hull_exact/no_mode/2026-02-15_22-10-20/original/results.dat
--- Putfile statresults /local/scratch/a/sgusev/repos/k_means/data/gams_scip_gdp.hull_exact/no_mode/2026-02-15_22-10-20/original/resultsstat.dat
*** Status: Normal completion
--- Job model.gms Stop 02/15/26 22:10:26 elapsed 0:00:05.143
Original problem solved. Time taken: 5.712645769119263 seconds
Original objective value: 1.463220478567799
